
ACE v2.1 

  instance
    name:PyCSP

  Loading variables...

  Loading constraints...

  domains
    types:1  values:378  sizes:[3:126]
  variables
    count:126  arrays:1  degrees:[105:4,106:42,107:80]
  constraints
    count:3243  specific:30  groups:2  arities:[4:3213,14:17,18:7,36:6]
    distribution:[Cardinality:7,ConstraintIntension:3213,LexicographicLE:23]
    intStructures:(1,shared:3212)
    wck:1.61  cpu:2.156  mem:19M253

  Building solver... 

  solver
    guaranteedAC:true
    wck:1.68  cpu:2.187  mem:23M970

  preprocessing
    revisions:(12852,useless=12852)  values:378  unsat:false
    wck:0.032  cpu:2.218  mem:23M972

    run0  dpts:0..13  effs:165  fails:2  wrgs:16  wck:0.00

  global
    effs:165  revisions:(59556,useless=59532)
    stop:FULL_EXPLORATION  wrgs:16
    wck:1.76  cpu:2.25  mem:24M496

s UNSATISFIABLE

d WRONG DECISIONS 16
d FOUND SOLUTIONS 0
d COMPLETE EXPLORATION

c real time : 2.265
